problems/csplib-prob065/opd-models/noch/O2/minion/model_2-lebbah_et_al_19_20_9-solution000001.eprime-solution
language ESSENCE' 1.0

letting lambda be 5
letting opd_ExplicitR3_Explicit be
        [[1, 2, 3, 4, 5, 6, 7, 8, 9; int(1..9)], [1, 2, 3, 4, 5, 10, 11, 12, 13; int(1..9)],
         [1, 2, 3, 4, 5, 14, 15, 16, 17; int(1..9)], [1, 2, 3, 4, 6, 10, 14, 18, 19; int(1..9)],
         [1, 2, 3, 4, 7, 11, 15, 18, 20; int(1..9)], [1, 2, 3, 4, 8, 12, 16, 19, 20; int(1..9)],
         [1, 2, 3, 5, 6, 11, 17, 19, 20; int(1..9)], [1, 2, 3, 5, 7, 13, 16, 18, 19; int(1..9)],
         [1, 2, 3, 5, 9, 12, 14, 18, 20; int(1..9)], [1, 2, 3, 6, 7, 10, 12, 15, 16; int(1..9)],
         [1, 2, 3, 6, 8, 11, 13, 14, 15; int(1..9)], [1, 2, 3, 7, 8, 10, 13, 17, 20; int(1..9)],
         [1, 2, 3, 8, 9, 10, 11, 16, 18; int(1..9)], [1, 2, 3, 9, 12, 13, 15, 17, 19; int(1..9)],
         [1, 2, 4, 5, 9, 10, 15, 19, 20; int(1..9)], [1, 2, 4, 6, 7, 11, 12, 14, 17; int(1..9)],
         [1, 2, 4, 6, 8, 13, 16, 17, 18; int(1..9)], [1, 2, 4, 7, 9, 10, 13, 14, 16; int(1..9)],
         [1, 2, 5, 6, 8, 10, 14, 16, 20; int(1..9)];
             int(1..19)]
